
  12   12
  10   10   10   10   10   10   10   10   10   10   10   10

   0   0   0   0   0   0   0   0   0   0   0   0   0   6 2 3 4 9 10 11 
   7   5   0   0   0   0   0   1   1   0   0   0   1   2 6 5 
   8   0   1   0   0   1   0   8   0   5   1   1   8   1 5 
   5   0   0   0   0   0   0   5   0   0   0   0   0   1 5 
   1   0   0   0   1   0   0   0   0   0   0   8   0   2 8 7 
   3   0   0   0   9   7   0   0   6   0   9   0   6   1 7 
   1   0   0   1   0   0   1   7   0   0   0   0   0   1 12
   4   0   0   4   0   0   0   0   0   0   0   8   0   1 12
   2   0   0  10   0   7   0   0   5   0   0   0   5   1 12
   9   0   5   0   0   0   0   0   0   0   0   0   5   1 12
   7   0   9   0   0   0   9   4   8   0   0   3   0   1 12
   0   0   0   0   0   0   0   0   0   0   0   0   0   0 
